p cnf 129 462
3 1 0
3 -2 0
-1 2 -3 0
-4 -1 0
-4 3 0
1 -3 4 0
-5 -2 -6 0
5 2 -6 0
-5 2 6 0
5 -2 6 0
7 4 0
7 -6 0
-4 6 -7 0
11 -9 0
11 10 0
9 -10 -11 0
-12 -8 0
-12 -11 0
8 11 12 0
7 -12 -13 0
-7 12 -13 0
7 12 13 0
-7 -12 13 0
15 -9 0
15 14 0
9 -14 -15 0
-17 -9 0
-17 -16 0
9 16 17 0
18 15 0
18 -17 0
-15 17 -18 0
-20 -8 0
-20 19 0
8 -19 20 0
20 -2 -21 0
-20 2 -21 0
20 2 21 0
-20 -2 21 0
22 -18 0
22 -21 0
18 21 -22 0
-23 -19 0
-23 -9 0
19 9 23 0
-15 -23 -24 0
15 23 -24 0
-15 23 24 0
15 -23 24 0
-25 22 0
-25 -24 0
-22 24 25 0
26 -20 0
26 -8 0
20 8 -26 0
-26 -24 -27 0
26 24 -27 0
-26 24 27 0
26 -24 27 0
-25 27 -28 0
25 -27 -28 0
-25 -27 28 0
25 27 28 0
-29 13 0
-29 28 0
-13 -28 29 0
30 1 0
30 -9 0
-1 9 -30 0
31 -30 0
31 30 0
31 23 -32 0
-31 -23 -32 0
31 -23 32 0
-31 23 32 0
33 -29 0
33 -32 0
29 32 -33 0
-34 -35 -36 0
34 35 -36 0
-34 35 36 0
34 -35 36 0
-37 -33 0
-37 -36 0
33 36 37 0
27 -38 -39 0
-27 38 -39 0
27 38 39 0
-27 -38 39 0
-40 -34 0
-40 39 0
34 -39 40 0
41 -10 -42 0
-41 10 -42 0
41 10 42 0
-41 -10 42 0
-18 42 -43 0
18 -42 -43 0
-18 -42 43 0
18 42 43 0
44 -40 0
44 -43 0
40 43 -44 0
-45 -37 0
-45 -44 0
37 44 45 0
-46 11 0
-46 -18 0
-11 18 46 0
-47 38 0
-47 46 0
-38 -46 47 0
15 -10 -48 0
-15 10 -48 0
15 10 48 0
-15 -10 48 0
49 47 0
49 48 0
-47 -48 -49 0
-49 -28 -50 0
49 28 -50 0
-49 28 50 0
49 -28 50 0
-51 45 0
-51 -50 0
-45 50 51 0
52 -30 0
52 41 0
30 -41 -52 0
53 -52 0
53 17 0
52 -17 -53 0
54 38 0
54 12 0
-38 -12 -54 0
55 -11 0
55 34 0
11 -34 -55 0
54 -55 -56 0
-54 55 -56 0
54 55 56 0
-54 -55 56 0
57 56 0
57 16 0
-56 -16 -57 0
58 -53 0
58 57 0
53 -57 -58 0
-59 51 0
-59 58 0
-51 -58 59 0
60 -5 0
60 -46 0
5 46 -60 0
61 60 0
61 11 0
-60 -11 -61 0
-12 -41 -62 0
12 41 -62 0
-12 41 62 0
12 -41 62 0
62 48 -63 0
-62 -48 -63 0
62 -48 63 0
-62 48 63 0
-64 -63 0
-64 -9 0
63 9 64 0
-65 -30 0
-65 -64 0
30 64 65 0
66 65 0
66 -16 0
-65 16 -66 0
66 -20 -67 0
-66 20 -67 0
66 20 67 0
-66 -20 67 0
-68 -61 0
-68 67 0
61 -67 68 0
59 68 -69 0
-59 -68 -69 0
59 -68 69 0
-59 68 69 0
70 31 0
70 19 0
-31 -19 -70 0
-71 -24 0
-71 -70 0
24 70 71 0
-72 20 0
-72 62 0
-20 -62 72 0
-73 -71 0
-73 -72 0
71 72 73 0
-74 -19 0
-74 -38 0
19 38 74 0
9 74 -75 0
-9 -74 -75 0
9 -74 75 0
-9 74 75 0
76 -41 0
76 19 0
41 -19 -76 0
-76 -70 -77 0
76 70 -77 0
-76 70 77 0
76 -70 77 0
77 -22 -78 0
-77 22 -78 0
77 22 78 0
-77 -22 78 0
-79 -75 0
-79 -78 0
75 78 79 0
-80 -20 0
-80 -16 0
20 16 80 0
-81 -17 0
-81 -80 0
17 80 81 0
-65 -81 -82 0
65 81 -82 0
-65 81 82 0
65 -81 82 0
83 -79 0
83 -82 0
79 82 -83 0
73 -83 -84 0
-73 83 -84 0
73 83 84 0
-73 -83 84 0
85 62 0
85 -39 0
-62 39 -85 0
-86 55 0
-86 17 0
-55 -17 86 0
-86 46 -87 0
86 -46 -87 0
-86 -46 87 0
86 46 87 0
-38 16 -88 0
38 -16 -88 0
-38 -16 88 0
38 16 88 0
89 17 0
89 -9 0
-17 9 -89 0
90 -88 0
90 89 0
88 -89 -90 0
-91 87 0
-91 90 0
-87 -90 91 0
92 -17 -93 0
-92 17 -93 0
92 17 93 0
-92 -17 93 0
94 91 0
94 -93 0
-91 93 -94 0
95 -85 0
95 94 0
85 -94 -95 0
-96 -15 0
-96 -22 0
15 22 96 0
97 70 0
97 96 0
-70 -96 -97 0
-95 -97 -98 0
95 97 -98 0
-95 97 98 0
95 -97 98 0
-99 84 0
-99 -98 0
-84 98 99 0
62 22 -100 0
-62 -22 -100 0
62 -22 100 0
-62 22 100 0
-101 -8 0
-101 -89 0
8 89 101 0
-23 -101 -102 0
23 101 -102 0
-23 101 102 0
23 -101 102 0
102 8 -103 0
-102 -8 -103 0
102 -8 103 0
-102 8 103 0
104 38 0
104 -103 0
-38 103 -104 0
100 -104 -105 0
-100 104 -105 0
100 104 105 0
-100 -104 105 0
-106 -19 0
-106 23 0
19 -23 106 0
107 20 0
107 14 0
-20 -14 -107 0
7 -4 -108 0
-7 4 -108 0
7 4 108 0
-7 -4 108 0
-109 -107 0
-109 -108 0
107 108 109 0
110 -106 0
110 -109 0
106 109 -110 0
105 110 -111 0
-105 -110 -111 0
105 -110 111 0
-105 110 111 0
26 -24 -112 0
-26 24 -112 0
26 24 112 0
-26 -24 112 0
-113 111 0
-113 -112 0
-111 112 113 0
-99 113 -114 0
99 -113 -114 0
-99 -113 114 0
99 113 114 0
-115 -25 0
-115 -1 0
25 1 115 0
-116 -115 0
-116 1 0
115 -1 116 0
-117 -54 0
-117 62 0
54 -62 117 0
116 117 -118 0
-116 -117 -118 0
116 -117 118 0
-116 117 118 0
12 9 -119 0
-12 -9 -119 0
12 -9 119 0
-12 9 119 0
120 -17 0
120 60 0
17 -60 -120 0
121 -120 0
121 88 0
120 -88 -121 0
11 70 -122 0
-11 -70 -122 0
11 -70 122 0
-11 70 122 0
-123 -77 0
-123 -40 0
77 40 123 0
124 -122 0
124 123 0
122 -123 -124 0
-125 121 0
-125 124 0
-121 -124 125 0
119 125 -126 0
-119 -125 -126 0
119 -125 126 0
-119 125 126 0
118 -126 -127 0
-118 126 -127 0
118 126 127 0
-118 -126 127 0
128 114 0
128 -127 0
-114 127 -128 0
-129 69 0
-129 128 0
-69 -128 129 0
86 87 41 0
-105 -106 -1 -61 0
50 -81 44 -29 -42 82 0
-99 29 9 34 63 0
-21 -38 0
3 -124 102 0
-57 -41 -122 50 -86 -82 0
10 90 54 11 49 0
1 98 -91 84 -110 0
109 -129 93 0
-63 18 -22 50 -43 -80 0
-36 98 68 84 -110 0
-108 80 -46 -26 78 -32 0
9 -86 119 0
-47 103 0
15 83 0
-85 -77 -101 -26 13 -82 0
17 -127 126 -39 0
67 46 -11 0
-26 -92 36 -113 -65 -77 0
34 14 97 113 0
25 14 0
-49 17 -25 27 -109 119 0
71 -5 123 -92 0
-72 -20 -103 -33 58 0
-46 28 0
-91 -117 80 126 19 0
111 19 13 -36 78 -57 0
-34 -58 -12 42 0
68 72 24 -20 0
-122 109 117 49 6 -95 0
-14 49 0
-20 56 0
-18 -62 -17 -59 -54 5 0
99 -45 0
116 93 0
-11 -93 69 -4 -30 0
-94 84 11 54 -24 0
56 38 0
125 -122 98 0
65 -126 104 84 0
-67 -83 0
121 -96 -3 0
-5 120 -55 0
78 -68 0
73 21 55 -102 -112 0
-97 -30 -111 15 -83 0
-116 -124 0
-115 87 0
20 -92 -81 0
71 125 121 109 65 0
-95 120 73 46 -36 0
-20 -119 -62 -57 23 33 0
-70 79 -48 -116 10 66 0
51 1 0
-37 -28 -113 0
120 118 -25 -56 -21 0
-103 6 -15 0
-88 44 -93 -8 0
97 -105 -93 -110 0
-55 -48 -118 0
38 129 -114 -22 45 95 0
-29 -8 -51 76 74 0
-5 -39 0
-91 39 0
-111 112 -35 -71 0
-109 -80 27 61 113 0
-68 -92 -110 -125 -43 122 0
127 74 0
30 128 0
128 81 -4 23 -102 -19 0
-83 -76 0
16 51 -74 -91 4 -120 0
-109 50 1 0
-129 -86 -20 -46 0
76 -59 0
102 -110 91 -89 0
129 0
